(set-info :smt-lib-version 2.6)
(set-info :category "crafted")
(set-logic QF_FFA)
(define-sort FF0 () (_ FiniteField 52435875175126190479447740508185965837690552500527637822603658699938581184513))
(declare-fun mul_n13_alt () FF0)
(declare-fun mul_n12_alt () FF0)
(declare-fun d_n3_alt () FF0)
(declare-fun e_n2_alt () FF0)
(declare-fun g_n7_alt () FF0)
(declare-fun mul_n11_alt () FF0)
(declare-fun a_n0_alt () FF0)
(declare-fun is_zero_n10_alt () FF0)
(declare-fun b_n6_alt () FF0)
(declare-fun f_n1_alt () FF0)
(declare-fun c_n4_alt () FF0)
(declare-fun h_n8_alt () FF0)
(declare-fun is_zero_inv_n9_alt () FF0)
(declare-fun mul_n13 () FF0)
(declare-fun mul_n12 () FF0)
(declare-fun d_n3 () FF0)
(declare-fun e_n2 () FF0)
(declare-fun g_n7 () FF0)
(declare-fun mul_n11 () FF0)
(declare-fun a_n0 () FF0)
(declare-fun is_zero_n10 () FF0)
(declare-fun b_n6 () FF0)
(declare-fun f_n1 () FF0)
(declare-fun c_n4 () FF0)
(declare-fun h_n8 () FF0)
(declare-fun is_zero_inv_n9 () FF0)
(declare-fun return_n5_alt () FF0)
(declare-fun return_n5 () FF0)
(assert 
  (let ((let0 mul_n13_alt))
  (let ((let1 mul_n12_alt))
  (let ((let2 (as ff1 FF0)))
  (let ((let3 (as ff52435875175126190479447740508185965837690552500527637822603658699938581184512 FF0)))
  (let ((let4 d_n3_alt))
  (let ((let5 (ff.mul let4 let3)))
  (let ((let6 (ff.add let5 let2)))
  (let ((let7 (ff.mul let6 let1)))
  (let ((let8 (= let7 let0)))
  (let ((let9 e_n2_alt))
  (let ((let10 (ff.mul let9 let3)))
  (let ((let11 (ff.add let10 let2)))
  (let ((let12 g_n7_alt))
  (let ((let13 (ff.mul let12 let11)))
  (let ((let14 (= let13 let1)))
  (let ((let15 mul_n11_alt))
  (let ((let16 a_n0_alt))
  (let ((let17 (as ff2 FF0)))
  (let ((let18 (as ff52435875175126190479447740508185965837690552500527637822603658699938581184511 FF0)))
  (let ((let19 is_zero_n10_alt))
  (let ((let20 (ff.mul let19 let18)))
  (let ((let21 (ff.add let20 let17)))
  (let ((let22 (ff.mul let21 let16)))
  (let ((let23 (= let22 let15)))
  (let ((let24 (as ff0 FF0)))
  (let ((let25 b_n6_alt))
  (let ((let26 f_n1_alt))
  (let ((let27 c_n4_alt))
  (let ((let28 (ff.mul let27 let17)))
  (let ((let29 h_n8_alt))
  (let ((let30 (ff.add let29 let9 let28 let26 let25)))
  (let ((let31 (ff.mul let19 let30)))
  (let ((let32 (= let31 let24)))
  (let ((let33 (ff.mul let19 let3)))
  (let ((let34 (ff.add let33 let2)))
  (let ((let35 is_zero_inv_n9_alt))
  (let ((let36 (ff.mul let35 let30)))
  (let ((let37 (= let36 let34)))
  (let ((let38 (and let37 let32 let23 let14 let8)))
  (let ((let39 mul_n13))
  (let ((let40 mul_n12))
  (let ((let41 d_n3))
  (let ((let42 (ff.mul let41 let3)))
  (let ((let43 (ff.add let42 let2)))
  (let ((let44 (ff.mul let43 let40)))
  (let ((let45 (= let44 let39)))
  (let ((let46 e_n2))
  (let ((let47 (ff.mul let46 let3)))
  (let ((let48 (ff.add let47 let2)))
  (let ((let49 g_n7))
  (let ((let50 (ff.mul let49 let48)))
  (let ((let51 (= let50 let40)))
  (let ((let52 mul_n11))
  (let ((let53 a_n0))
  (let ((let54 is_zero_n10))
  (let ((let55 (ff.mul let54 let18)))
  (let ((let56 (ff.add let55 let17)))
  (let ((let57 (ff.mul let56 let53)))
  (let ((let58 (= let57 let52)))
  (let ((let59 b_n6))
  (let ((let60 f_n1))
  (let ((let61 c_n4))
  (let ((let62 (ff.mul let61 let17)))
  (let ((let63 h_n8))
  (let ((let64 (ff.add let63 let46 let62 let60 let59)))
  (let ((let65 (ff.mul let54 let64)))
  (let ((let66 (= let65 let24)))
  (let ((let67 (ff.mul let54 let3)))
  (let ((let68 (ff.add let67 let2)))
  (let ((let69 is_zero_inv_n9))
  (let ((let70 (ff.mul let69 let64)))
  (let ((let71 (= let70 let68)))
  (let ((let72 (and let71 let66 let58 let51 let45)))
  (let ((let73 return_n5_alt))
  (let ((let74 return_n5))
  (let ((let75 (= let74 let73)))
  (let ((let76 (not let75)))
  (let ((let77 (= let60 let26)))
  (let ((let78 (= let41 let4)))
  (let ((let79 (= let61 let27)))
  (let ((let80 (= let63 let29)))
  (let ((let81 (= let59 let25)))
  (let ((let82 (= let46 let9)))
  (let ((let83 (= let49 let12)))
  (let ((let84 (= let53 let16)))
  (let ((let85 (and let84 let83 let82 let81 let80 let79 let78 let77)))
  (let ((let86 (and let85 let76 let72 let38)))
  let86
)))))))))))))))))))))))))))))))))))))))))))))))))))))))))))))))))))))))))))))))))))))))
)
(check-sat)
